solution status: time limit reached
objective value:                     22.9999998368695
shell_j_$_45                                        1 	(obj:0)
shell_j_$_47                                        1 	(obj:0)
shell_j_$_70                                        1 	(obj:0)
shell_j_$_44                                        1 	(obj:0)
shell_i_$_54                                        1 	(obj:0)
shell_i_$_37                                        1 	(obj:0)
shell_j_$_53                                        1 	(obj:0)
shell_i_$_38                                        1 	(obj:0)
shell_i_$_69                                        1 	(obj:0)
shell_i_$_71                                        1 	(obj:0)
shell_j_$_62                                        1 	(obj:0)
shell_i_$_55                                        1 	(obj:0)
shell_j_$_63                                        1 	(obj:0)
shell_i_$_73                                        1 	(obj:0)
shell_j_$_72                                        1 	(obj:0)
shell_i_$_74                                        1 	(obj:0)
shell_i_$_75                                        1 	(obj:0)
shell_j_$_42                                        1 	(obj:0)
shell_j_$_41                                        1 	(obj:0)
shell_j_$_48                                        1 	(obj:0)
shell_j_$_52                                        1 	(obj:0)
$_69_z                               24.0000000098745 	(obj:0)
$_44_y                                              6 	(obj:0)
$_44_z                                             24 	(obj:0)
$_71_x                                              6 	(obj:0)
$_71_y                                              3 	(obj:0)
$_71_z                                             25 	(obj:0)
$_47_y                                              6 	(obj:0)
$_47_z                                             25 	(obj:0)
$_62_x                                              3 	(obj:0)
$_62_y                                              6 	(obj:0)
$_62_z                                             24 	(obj:0)
$_54_x                                              6 	(obj:0)
$_54_y                               2.00000002912933 	(obj:0)
$_55_x                                              6 	(obj:0)
$_55_y                                              5 	(obj:0)
$_55_z                                             25 	(obj:0)
$_54_z                                             24 	(obj:0)
$_45_z                                             25 	(obj:0)
$_63_x                                              2 	(obj:0)
$_63_y                                              6 	(obj:0)
$_63_z                                             25 	(obj:0)
$_45_x                                              3 	(obj:0)
$_37_x                                              6 	(obj:0)
$_73_x                                              6 	(obj:0)
$_73_y                                              5 	(obj:0)
$_73_z                                             24 	(obj:0)
$_37_y                                              4 	(obj:0)
$_37_z                               23.0000000196151 	(obj:0)
$_72_x                                              6 	(obj:0)
$_72_y                                              6 	(obj:0)
$_72_z                                             24 	(obj:0)
$_70_x                                              5 	(obj:0)
$_70_y                                              6 	(obj:0)
$_74_x                                              6 	(obj:0)
$_74_y                               2.00000000912318 	(obj:0)
$_74_z                                             25 	(obj:0)
$_53_x                                              4 	(obj:0)
$_53_y                                              6 	(obj:0)
$_75_x                                              6 	(obj:0)
$_75_y                                              4 	(obj:0)
$_75_z                                             25 	(obj:0)
$_53_z                                             25 	(obj:0)
$_70_z                                  25.0000000025 	(obj:0)
$_42_x                                              6 	(obj:0)
$_42_y                                              6 	(obj:0)
$_42_z                                             22 	(obj:0)
$_45_y                                              6 	(obj:0)
$_38_x                                              6 	(obj:0)
$_41_x                                              6 	(obj:0)
$_41_y                                              6 	(obj:0)
$_41_z                                             23 	(obj:0)
$_38_y                               3.00000001963721 	(obj:0)
$_38_z                                             24 	(obj:0)
$_48_x                                              5 	(obj:0)
$_48_y                                              6 	(obj:0)
$_48_z                                   24.000000005 	(obj:0)
$_47_x                                              6 	(obj:0)
$_44_x                                              2 	(obj:0)
$_52_x                                              4 	(obj:0)
$_52_y                                              6 	(obj:0)
$_52_z                                             24 	(obj:0)
$_69_x                                              6 	(obj:0)
$_69_y                                              4 	(obj:0)
x112                                                1 	(obj:1)
x115                                                1 	(obj:1)
x125                                 2.99999996138952 	(obj:1)
x129                                0.999999970937509 	(obj:1)
x131                                                2 	(obj:1)
x132                                0.999999970884148 	(obj:1)
x140                                 2.99999997088163 	(obj:1)
x144                             -9.37109385458175e-09 	(obj:1)
x146                                                2 	(obj:1)
x147                             -9.47943420682226e-09 	(obj:1)
x149                                                3 	(obj:1)
x152                                                1 	(obj:1)
x160                                                1 	(obj:1)
x170                                 1.99999998162717 	(obj:1)
x177                                                1 	(obj:1)
x181                                                1 	(obj:1)
